p cnf 7230 16
664 1059 -1316 0
654 1095 -1314 0
648 917 -1312 0
-907 -1208 -1310 0
-664 -1317 0
-654 -1315 0
-648 -1313 0
907 -1311 0
1316 1317 0
1314 1315 0
1312 1313 0
1310 1311 0
-1059 -1317 0
-1095 -1315 0
-917 -1313 0
1208 -1311 0
